1000
750 750
1 600 220
2 599 804
3 599 687
4 599 871
5 596 669
6 596 205
7 596 486
8 595 426
9 595 264
10 594 480
11 593 805
12 593 738
13 591 861
14 591 974
15 591 280
16 591 903
17 591 939
18 590 527
19 590 561
20 590 161
21 589 188
22 588 321
23 588 48
24 588 2
25 588 397
26 586 232
27 586 826
28 586 823
29 585 981
30 585 215
31 585 67
32 584 235
33 584 619
34 583 340
35 582 774
36 582 103
37 582 541
38 582 756
39 581 474
40 581 621
41 580 127
42 579 331
43 579 520
44 577 42
45 576 403
46 576 337
47 576 900
48 576 802
49 575 800
50 575 558
51 574 444
52 574 878
53 573 319
54 572 964
55 572 957
56 572 664
57 572 699
58 571 193
59 571 614
60 571 177
61 571 936
62 570 548
63 570 391
64 569 783
65 568 354
66 568 528
67 568 440
68 568 887
69 568 972
70 566 218
71 565 338
72 565 651
73 565 472
74 564 38
75 562 857
76 562 801
77 561 429
78 561 649
79 561 151
80 559 990
81 559 680
82 558 720
83 558 408
84 556 977
85 556 631
86 555 105
87 555 346
88 554 349
89 554 346
90 554 745
91 553 667
92 553 767
93 553 377
94 552 553
95 552 292
96 552 878
97 552 321
98 552 765
99 551 829
100 551 632
101 551 356
102 550 567
103 550 428
104 549 360
105 549 102
106 549 119
107 547 541
108 547 86
109 547 725
110 547 540
111 546 287
112 546 548
113 546 888
114 546 627
115 546 579
116 545 31
117 545 282
118 545 173
119 544 646
120 544 838
121 543 136
122 543 935
123 542 664
124 542 734
125 542 354
126 542 676
127 541 905
128 539 257
129 538 5
130 538 654
131 538 274
132 537 905
133 537 23
134 536 246
135 536 127
136 535 394
137 535 480
138 535 419
139 535 308
140 534 25
141 534 865
142 534 999
143 534 643
144 534 236
145 534 561
146 534 694
147 533 172
148 533 525
149 533 511
150 532 852
151 532 891
152 532 691
153 532 820
154 531 646
155 530 817
156 530 904
157 530 214
158 530 816
159 529 876
160 529 974
161 529 641
162 529 396
163 528 246
164 525 805
165 525 853
166 525 98
167 524 669
168 524 94
169 524 299
170 524 624
171 524 973
172 524 135
173 523 544
174 523 12
175 522 714
176 522 966
177 522 357
178 522 14
179 522 804
180 522 805
181 522 130
182 521 255
183 520 683
184 519 817
185 519 274
186 519 582
187 517 199
188 517 814
189 516 812
190 516 186
191 516 826
192 514 691
193 514 483
194 514 390
195 514 209
196 513 233
197 513 352
198 513 702
199 512 978
200 512 187
201 512 530
202 511 847
203 511 358
204 511 127
205 509 775
206 509 341
207 509 240
208 509 713
209 508 739
210 508 849
211 508 940
212 507 273
213 506 369
214 506 246
215 506 433
216 506 650
217 505 435
218 505 521
219 504 641
220 504 555
221 504 126
222 503 564
223 502 795
224 502 867
225 500 602
226 500 472
227 499 932
228 499 933
229 499 710
230 498 523
231 497 1000
232 497 471
233 496 391
234 496 137
235 496 814
236 496 350
237 495 318
238 495 676
239 495 719
240 495 970
241 495 683
242 494 947
243 493 669
244 493 105
245 492 815
246 492 691
247 492 404
248 492 15
249 492 86
250 490 286
251 490 321
252 489 403
253 489 892
254 489 859
255 489 768
256 488 836
257 487 142
258 487 539
259 486 709
260 484 280
261 484 718
262 484 954
263 484 951
264 484 782
265 484 195
266 483 256
267 483 362
268 482 249
269 482 553
270 482 422
271 482 846
272 482 973
273 481 105
274 481 108
275 481 746
276 479 895
277 478 221
278 478 934
279 478 204
280 478 129
281 478 707
282 478 743
283 478 551
284 477 206
285 477 949
286 476 323
287 476 927
288 475 668
289 475 277
290 474 164
291 473 100
292 473 806
293 473 635
294 473 2
295 473 270
296 471 234
297 471 423
298 471 422
299 471 799
300 471 938
301 470 473
302 470 703
303 469 204
304 469 674
305 469 136
306 469 757
307 467 647
308 467 262
309 466 154
310 466 464
311 465 42
312 464 997
313 464 800
314 463 947
315 463 28
316 463 222
317 463 524
318 463 761
319 463 751
320 462 53
321 462 69
322 461 257
323 461 184
324 461 118
325 461 85
326 461 668
327 461 136
328 460 667
329 460 866
330 458 418
331 458 509
332 458 494
333 457 278
334 456 264
335 455 319
336 455 311
337 455 651
338 454 91
339 454 838
340 454 733
341 453 285
342 453 781
343 452 889
344 452 803
345 451 672
346 450 437
347 450 604
348 450 472
349 450 706
350 450 752
351 449 920
352 449 327
353 449 547
354 449 2
355 448 787
356 448 618
357 447 105
358 446 264
359 445 253
360 445 504
361 445 223
362 445 868
363 445 794
364 444 407
365 444 93
366 444 784
367 443 571
368 443 332
369 442 770
370 442 65
371 442 173
372 442 585
373 441 609
374 441 930
375 441 346
376 440 997
377 440 858
378 440 160
379 439 943
380 438 431
381 438 851
382 437 362
383 437 396
384 436 871
385 434 820
386 433 117
387 433 985
388 432 54
389 432 63
390 432 367
391 431 711
392 431 638
393 430 304
394 430 364
395 429 558
396 429 445
397 428 340
398 427 570
399 427 411
400 427 75
401 425 380
402 425 204
403 424 712
404 424 725
405 424 180
406 423 85
407 423 137
408 422 553
409 422 311
410 422 153
411 422 666
412 421 463
413 421 700
414 420 2
415 420 770
416 419 772
417 419 844
418 419 839
419 419 515
420 418 934
421 418 908
422 418 851
423 415 409
424 415 557
425 414 50
426 413 572
427 413 842
428 413 534
429 413 211
430 412 271
431 412 771
432 411 717
433 411 541
434 411 932
435 411 620
436 410 284
437 410 373
438 410 387
439 409 65
440 409 684
441 408 589
442 408 724
443 408 272
444 407 170
445 406 369
446 405 275
447 405 25
448 403 365
449 402 932
450 402 792
451 401 963
452 400 960
453 400 897
454 400 775
455 400 239
456 399 642
457 399 204
458 399 176
459 399 742
460 399 75
461 398 733
462 398 519
463 398 247
464 397 100
465 397 605
466 397 10
467 397 550
468 397 465
469 397 968
470 397 11
471 396 227
472 396 536
473 395 795
474 395 340
475 394 295
476 393 484
477 393 921
478 393 691
479 393 365
480 392 629
481 392 954
482 391 271
483 391 836
484 391 481
485 390 64
486 390 628
487 389 134
488 389 535
489 389 845
490 388 833
491 388 640
492 387 805
493 386 307
494 385 532
495 385 481
496 385 590
497 384 942
498 382 505
499 382 687
500 381 476
501 381 256
502 381 121
503 380 598
504 380 955
505 379 892
506 379 912
507 379 755
508 378 953
509 377 678
510 377 326
511 376 370
512 375 898
513 374 535
514 374 39
515 373 952
516 373 57
517 373 984
518 372 71
519 372 305
520 371 46
521 371 314
522 370 26
523 370 163
524 369 999
525 369 39
526 369 464
527 368 619
528 368 877
529 368 634
530 367 465
531 366 238
532 366 214
533 366 991
534 364 274
535 363 78
536 363 300
537 363 113
538 363 189
539 362 349
540 362 66
541 361 277
542 360 570
543 360 672
544 360 726
545 360 384
546 359 440
547 358 5
548 357 926
549 357 114
550 357 486
551 357 32
552 356 392
553 356 828
554 356 569
555 355 354
556 355 581
557 354 319
558 354 616
559 353 732
560 353 963
561 352 76
562 351 793
563 351 833
564 350 184
565 349 96
566 349 784
567 349 880
568 348 24
569 348 914
570 347 267
571 346 793
572 346 2
573 345 833
574 345 54
575 345 451
576 344 93
577 343 700
578 343 470
579 343 117
580 342 379
581 342 381
582 342 615
583 342 327
584 342 217
585 342 105
586 341 614
587 341 677
588 341 588
589 340 264
590 340 951
591 340 465
592 339 398
593 337 261
594 336 549
595 336 0
596 335 152
597 333 658
598 333 832
599 333 363
600 332 305
601 332 90
602 332 971
603 331 371
604 331 16
605 330 974
606 330 940
607 329 806
608 328 254
609 328 341
610 328 991
611 327 73
612 326 203
613 326 739
614 326 201
615 325 944
616 325 886
617 325 613
618 325 321
619 325 673
620 325 426
621 325 948
622 324 644
623 323 48
624 322 289
625 321 119
626 321 132
627 321 459
628 321 800
629 321 776
630 320 979
631 320 567
632 320 354
633 319 774
634 319 593
635 319 84
636 319 258
637 318 462
638 318 302
639 318 679
640 318 681
641 317 125
642 317 95
643 317 323
644 317 255
645 316 555
646 315 66
647 314 976
648 313 401
649 313 338
650 312 1
651 312 287
652 311 743
653 310 485
654 310 425
655 310 594
656 310 914
657 310 484
658 307 959
659 307 329
660 307 933
661 306 804
662 305 132
663 305 438
664 304 509
665 304 909
666 304 907
667 302 679
668 302 753
669 302 888
670 300 299
671 300 476
672 300 752
673 299 749
674 298 621
675 298 665
676 296 223
677 296 819
678 296 57
679 296 367
680 295 194
681 295 162
682 295 184
683 294 314
684 293 582
685 292 979
686 292 56
687 292 872
688 291 31
689 291 384
690 291 371
691 290 540
692 290 11
693 290 681
694 290 586
695 289 531
696 289 340
697 288 713
698 288 440
699 288 903
700 287 359
701 287 344
702 286 684
703 285 255
704 285 555
705 284 263
706 284 334
707 284 709
708 283 122
709 283 570
710 283 795
711 283 898
712 283 386
713 282 325
714 280 516
715 278 989
716 277 319
717 277 303
718 276 887
719 276 655
720 276 307
721 276 771
722 276 851
723 275 955
724 274 968
725 274 166
726 274 697
727 273 588
728 272 335
729 271 290
730 271 657
731 271 58
732 270 456
733 270 148
734 270 408
735 270 107
736 268 924
737 268 147
738 268 236
739 266 857
740 266 563
741 266 438
742 265 872
743 265 478
744 265 741
745 265 132
746 264 59
747 263 957
748 261 693
749 260 113
750 259 481
751 258 56
752 258 722
753 257 14
754 257 393
755 256 825
756 256 417
757 256 636
758 256 22
759 255 100
760 255 618
761 255 417
762 254 766
763 254 192
764 253 155
765 253 766
766 252 313
767 252 899
768 252 349
769 251 307
770 251 228
771 251 175
772 250 409
773 250 527
774 249 198
775 249 148
776 249 828
777 249 245
778 249 570
779 249 803
780 249 731
781 249 898
782 248 881
783 248 573
784 247 213
785 247 646
786 244 298
787 244 43
788 243 736
789 243 574
790 243 455
791 242 383
792 242 874
793 242 831
794 240 957
795 240 235
796 240 775
797 239 571
798 239 566
799 239 692
800 238 589
801 237 623
802 237 401
803 236 573
804 236 777
805 235 751
806 235 871
807 235 131
808 234 487
809 234 506
810 233 373
811 232 626
812 231 211
813 231 831
814 231 540
815 231 646
816 230 710
817 230 730
818 230 80
819 229 77
820 228 235
821 228 676
822 227 776
823 226 324
824 226 778
825 226 672
826 226 832
827 225 26
828 223 357
829 222 854
830 221 697
831 220 640
832 220 198
833 220 921
834 220 666
835 220 707
836 219 224
837 218 23
838 218 25
839 218 7
840 218 437
841 217 566
842 217 794
843 216 996
844 216 394
845 216 907
846 216 977
847 215 950
848 214 908
849 214 418
850 213 91
851 212 491
852 212 467
853 212 450
854 212 153
855 212 611
856 211 869
857 211 975
858 211 554
859 210 843
860 210 43
861 210 306
862 209 50
863 208 235
864 207 765
865 207 274
866 206 180
867 206 738
868 206 58
869 205 407
870 204 123
871 204 589
872 203 564
873 203 222
874 202 327
875 201 475
876 201 643
877 201 646
878 201 872
879 201 292
880 200 804
881 199 60
882 199 479
883 199 1000
884 198 340
885 197 25
886 197 167
887 196 275
888 196 64
889 195 678
890 195 940
891 195 772
892 195 474
893 195 93
894 194 492
895 194 841
896 193 281
897 193 959
898 192 438
899 192 635
900 192 908
901 192 329
902 192 831
903 191 480
904 191 664
905 191 282
906 191 617
907 190 663
908 190 199
909 190 179
910 189 518
911 189 252
912 189 984
913 188 65
914 188 783
915 188 46
916 187 325
917 187 816
918 187 794
919 186 696
920 184 920
921 184 957
922 184 551
923 183 393
924 183 744
925 183 701
926 183 601
927 183 489
928 181 683
929 181 562
930 180 245
931 180 456
932 180 425
933 179 338
934 179 498
935 179 289
936 178 578
937 178 861
938 178 319
939 177 715
940 177 217
941 177 142
942 177 674
943 176 79
944 176 700
945 174 733
946 174 341
947 173 664
948 173 67
949 173 63
950 173 438
951 169 470
952 169 346
953 168 437
954 168 967
955 167 905
956 167 878
957 167 634
958 167 790
959 167 265
960 167 263
961 166 679
962 166 475
963 165 641
964 165 915
965 165 883
966 164 754
967 164 519
968 164 852
969 163 937
970 163 656
971 162 718
972 162 135
973 162 555
974 162 308
975 161 834
976 161 267
977 161 895
978 161 508
979 161 995
980 160 854
981 159 567
982 159 119
983 159 806
984 159 710
985 157 398
986 157 482
987 157 904
988 155 390
989 154 80
990 153 704
991 153 185
992 152 207
993 151 182
994 150 597
995 150 494
996 150 138
997 150 405
998 150 197
999 150 612
1000 150 805
